p tw 28 42
1 3
1 6
1 28
2 9
2 11
2 13
3 17
3 24
4 5
4 16
4 26
5 13
5 22
6 18
6 20
7 10
7 20
7 27
8 22
8 25
8 26
9 23
9 27
10 14
10 18
11 14
11 16
12 17
12 18
12 20
13 19
14 26
15 19
15 21
15 24
16 23
17 24
19 25
21 23
21 27
22 28
25 28
